model.mps
NAME VoT
ROWS
 N  OBJ
 E  R0      
 E  R1      
 E  R2      
 E  R3      
 E  R4      
 E  R5      
 E  R6      
 E  R7      
 E  R8      
 L  R9      
 L  R10     
 E  R11     
 E  R12     
 L  R13     
 L  R14     
 E  R15     
 E  R16     
 E  R17     
 E  R18     
 E  R19     
 E  R20     
COLUMNS
    x_eu[0,0]  OBJ       3
    x_eu[0,0]  R0        1
    x_eu[0,0]  R7        1
    x_eu[0,0]  R11       1
    x_eu[0,1]  OBJ       3
    x_eu[0,1]  R0        1
    x_eu[0,1]  R8        1
    x_eu[0,1]  R12       1
    x_eu[1,0]  OBJ       8.5714285714285710e-01
    x_eu[1,0]  R1        1
    x_eu[1,0]  R7        1
    x_eu[1,0]  R15       1
    x_eu[1,1]  OBJ       8.5714285714285710e-01
    x_eu[1,1]  R1        1
    x_eu[1,1]  R8        1
    x_eu[1,1]  R18       1
    x_eu[2,0]  OBJ       8.5714285714285710e-01
    x_eu[2,0]  R2        1
    x_eu[2,0]  R11       1
    x_eu[2,0]  R15       -1
    x_eu[2,1]  OBJ       8.5714285714285710e-01
    x_eu[2,1]  R2        1
    x_eu[2,1]  R12       1
    x_eu[2,1]  R18       -1
    x_eu[3,0]  OBJ       3.0000000000000004e-01
    x_eu[3,0]  R3        1
    x_eu[3,0]  R7        1
    x_eu[3,0]  R16       1
    x_eu[3,1]  OBJ       3.0000000000000004e-01
    x_eu[3,1]  R3        1
    x_eu[3,1]  R8        1
    x_eu[3,1]  R19       1
    x_eu[4,0]  OBJ       3.0000000000000004e-01
    x_eu[4,0]  R4        1
    x_eu[4,0]  R11       1
    x_eu[4,0]  R16       -1
    x_eu[4,1]  OBJ       3.0000000000000004e-01
    x_eu[4,1]  R4        1
    x_eu[4,1]  R12       1
    x_eu[4,1]  R19       -1
    x_eu[5,0]  OBJ       1.5000000000000002e-01
    x_eu[5,0]  R5        1
    x_eu[5,0]  R7        1
    x_eu[5,0]  R17       1
    x_eu[5,1]  OBJ       1.5000000000000002e-01
    x_eu[5,1]  R5        1
    x_eu[5,1]  R8        1
    x_eu[5,1]  R20       1
    x_eu[6,0]  OBJ       1.5000000000000002e-01
    x_eu[6,0]  R6        1
    x_eu[6,0]  R11       1
    x_eu[6,0]  R17       -1
    x_eu[6,1]  OBJ       1.5000000000000002e-01
    x_eu[6,1]  R6        1
    x_eu[6,1]  R12       1
    x_eu[6,1]  R20       -1
    x_e[0]    R0        -1
    x_e[1]    R1        -1
    x_e[2]    R2        -1
    x_e[3]    R3        -1
    x_e[4]    R4        -1
    x_e[5]    R5        -1
    x_e[6]    R6        -1
RHS
    RHS1      R7        10
    RHS1      R8        10
    RHS1      R11       10
    RHS1      R12       10
BOUNDS
QUADOBJ
    x_eu[0,0]  x_e[0]    0.03
    x_eu[0,1]  x_e[0]    0.03
    x_eu[1,0]  x_e[1]    6.0000000000000009e-01
    x_eu[1,1]  x_e[1]    6.0000000000000009e-01
    x_eu[2,0]  x_e[2]    6.0000000000000009e-01
    x_eu[2,1]  x_e[2]    6.0000000000000009e-01
    x_eu[3,0]  x_e[3]    1.5
    x_eu[3,1]  x_e[3]    1.5
    x_eu[4,0]  x_e[4]    1.5
    x_eu[4,1]  x_e[4]    1.5
    x_eu[5,0]  x_e[5]    3
    x_eu[5,1]  x_e[5]    3
    x_eu[6,0]  x_e[6]    3
    x_eu[6,1]  x_e[6]    3
ENDATA
